80
916
20
27
6
5
79
75
45
85
97
96
73
42
71
82
49
38
35
16
88
89
28
0 5
0 8
0 9
0 11
0 12
0 13
0 22
0 26
0 30
0 32
0 33
0 36
0 38
0 46
0 47
0 52
0 58
0 60
0 61
0 62
0 70
0 73
0 74
1 2
1 3
1 4
1 7
1 10
1 11
1 17
1 18
1 24
1 25
1 27
1 29
1 41
1 44
1 46
1 52
1 58
1 63
1 64
1 67
1 69
1 74
1 76
2 3
2 5
2 9
2 10
2 14
2 17
2 21
2 26
2 29
2 36
2 38
2 40
2 42
2 44
2 49
2 51
2 54
2 69
2 73
2 76
2 77
2 79
3 4
3 16
3 19
3 24
3 29
3 30
3 36
3 37
3 38
3 39
3 41
3 44
3 47
3 49
3 52
3 55
3 59
3 61
3 66
3 68
3 70
3 75
3 76
3 78
4 6
4 7
4 9
4 12
4 15
4 17
4 18
4 19
4 24
4 26
4 27
4 29
4 30
4 32
4 39
4 41
4 43
4 46
4 48
4 51
4 52
4 65
4 66
4 67
4 68
4 73
4 74
4 76
4 79
5 12
5 15
5 17
5 18
5 19
5 20
5 22
5 23
5 25
5 27
5 29
5 40
5 41
5 43
5 46
5 47
5 48
5 51
5 53
5 56
5 57
5 62
5 66
5 69
5 77
6 8
6 13
6 19
6 31
6 35
6 43
6 45
6 46
6 48
6 50
6 63
6 64
6 67
6 68
6 71
6 72
6 74
6 77
6 78
7 9
7 11
7 14
7 18
7 21
7 26
7 27
7 32
7 33
7 35
7 36
7 38
7 39
7 42
7 46
7 51
7 52
7 53
7 59
7 67
7 69
7 70
7 74
8 9
8 16
8 18
8 19
8 21
8 23
8 27
8 28
8 30
8 32
8 33
8 35
8 37
8 45
8 46
8 51
8 55
8 59
8 61
8 68
8 69
8 70
8 73
8 79
9 10
9 14
9 15
9 21
9 22
9 31
9 32
9 38
9 39
9 41
9 42
9 43
9 48
9 49
9 56
9 59
9 62
9 64
9 66
9 72
9 73
10 14
10 31
10 32
10 36
10 38
10 39
10 40
10 46
10 50
10 52
10 55
10 56
10 60
10 66
10 69
11 13
11 16
11 17
11 19
11 23
11 24
11 28
11 30
11 31
11 35
11 38
11 41
11 43
11 44
11 45
11 47
11 54
11 56
11 63
11 64
11 68
11 69
11 70
11 74
11 75
11 78
11 79
12 19
12 21
12 22
12 23
12 26
12 28
12 30
12 31
12 33
12 35
12 36
12 38
12 40
12 42
12 44
12 46
12 50
12 55
12 57
12 58
12 59
12 60
12 61
12 67
12 72
12 75
12 77
13 16
13 20
13 22
13 23
13 25
13 29
13 32
13 36
13 38
13 44
13 48
13 49
13 50
13 56
13 69
13 73
13 75
13 78
14 15
14 17
14 19
14 20
14 21
14 23
14 24
14 31
14 32
14 34
14 37
14 38
14 42
14 44
14 45
14 47
14 51
14 55
14 61
14 63
14 65
14 67
14 70
14 77
14 79
15 18
15 22
15 23
15 28
15 38
15 41
15 43
15 44
15 45
15 56
15 63
15 71
15 73
15 79
16 18
16 20
16 22
16 25
16 27
16 29
16 38
16 43
16 47
16 48
16 51
16 52
16 55
16 62
16 65
16 71
16 75
16 78
17 19
17 20
17 22
17 23
17 28
17 31
17 32
17 34
17 35
17 36
17 38
17 40
17 43
17 44
17 47
17 49
17 68
17 70
18 21
18 22
18 23
18 24
18 26
18 37
18 40
18 43
18 46
18 47
18 49
18 51
18 57
18 62
18 66
19 20
19 22
19 24
19 33
19 35
19 38
19 39
19 44
19 46
19 57
19 58
19 66
19 67
19 71
19 72
20 27
20 37
20 38
20 42
20 48
20 50
20 51
20 52
20 61
20 62
20 64
20 70
20 77
20 78
21 24
21 25
21 27
21 28
21 32
21 35
21 39
21 42
21 43
21 46
21 48
21 49
21 51
21 53
21 57
21 59
21 72
21 75
22 23
22 25
22 40
22 46
22 50
22 53
22 55
22 57
22 64
22 65
22 71
23 28
23 32
23 35
23 37
23 43
23 46
23 49
23 50
23 52
23 57
23 59
23 60
23 70
23 72
23 73
23 74
23 75
23 76
23 78
24 28
24 32
24 36
24 42
24 46
24 48
24 55
24 57
24 60
24 61
24 64
24 66
24 71
24 72
24 76
24 78
25 27
25 28
25 33
25 35
25 42
25 44
25 56
25 57
25 58
25 60
25 62
25 71
25 72
25 77
25 78
25 79
26 27
26 33
26 35
26 39
26 40
26 42
26 46
26 49
26 51
26 54
26 56
26 58
26 62
26 69
26 73
26 76
26 79
27 32
27 41
27 52
27 53
27 54
27 55
27 59
27 62
27 69
27 70
27 73
27 78
27 79
28 30
28 36
28 40
28 42
28 43
28 46
28 47
28 60
28 61
28 65
28 67
28 72
28 73
28 74
28 76
28 77
28 79
29 31
29 38
29 42
29 43
29 45
29 46
29 48
29 50
29 51
29 57
29 60
29 64
29 67
29 70
29 71
29 75
29 77
29 78
30 32
30 34
30 38
30 39
30 47
30 54
30 57
30 62
30 63
30 67
30 71
31 33
31 35
31 36
31 37
31 45
31 48
31 49
31 50
31 53
31 58
31 61
31 65
31 67
31 69
31 72
31 77
32 33
32 34
32 39
32 44
32 49
32 54
32 56
32 58
32 61
32 62
32 63
32 68
33 39
33 40
33 43
33 45
33 52
33 53
33 64
33 67
33 68
33 69
33 70
33 71
33 72
34 40
34 43
34 45
34 46
34 49
34 60
34 63
34 65
34 69
34 75
35 36
35 37
35 43
35 45
35 49
35 50
35 53
35 59
35 62
35 63
35 67
35 70
35 74
35 75
35 77
36 38
36 41
36 43
36 46
36 47
36 48
36 49
36 59
36 62
36 65
36 66
36 67
36 68
36 75
36 79
37 38
37 39
37 43
37 57
37 63
37 64
37 65
37 67
37 71
37 72
37 73
37 75
37 79
38 39
38 40
38 51
38 52
38 56
38 59
38 60
38 67
38 69
38 73
38 77
39 47
39 48
39 49
39 52
39 57
39 62
39 63
39 69
39 73
39 78
39 79
40 52
40 59
40 64
41 43
41 49
41 51
41 53
41 57
41 59
41 60
41 62
41 70
41 76
41 78
42 44
42 47
42 48
42 51
42 58
42 61
42 64
42 65
42 69
42 74
42 75
43 45
43 46
43 52
43 54
43 57
43 59
43 64
43 68
43 75
43 78
44 48
44 57
44 67
44 68
44 71
44 74
44 78
45 47
45 50
45 52
45 54
45 55
45 57
45 60
45 61
45 62
45 67
45 69
45 71
45 75
45 76
45 77
46 51
46 55
46 56
46 59
46 63
46 66
46 75
47 50
47 52
47 55
47 57
47 60
47 63
47 64
47 73
47 74
47 76
47 77
48 49
48 55
48 59
48 60
48 64
48 76
48 78
49 59
49 60
49 62
49 65
49 78
50 51
50 53
50 54
50 64
50 71
50 73
50 76
50 79
51 53
51 56
51 58
51 62
51 66
51 67
51 69
52 62
52 77
53 57
53 62
53 63
53 68
53 71
53 76
53 78
54 59
54 60
54 62
54 68
54 74
55 59
55 61
55 62
55 67
55 69
55 72
55 75
55 79
56 64
56 65
56 71
56 73
56 75
57 58
57 63
57 64
57 65
57 67
57 76
57 79
58 63
58 67
58 72
58 73
58 78
59 63
59 65
59 73
59 74
59 76
60 69
60 70
60 72
60 73
60 77
61 62
61 63
61 66
61 69
61 75
61 77
62 63
62 64
62 71
62 72
62 75
62 79
63 66
63 73
63 77
63 79
64 66
64 69
64 74
64 75
64 76
64 78
65 67
65 70
65 73
65 78
65 79
66 67
66 72
66 73
66 77
67 69
67 70
67 72
67 73
68 69
68 79
69 70
69 75
69 77
70 72
70 73
70 76
70 79
71 74
72 74
72 75
72 76
73 79
74 78
74 79
75 76
75 78
77 78
49 56 65 71
69 8 54 66
4 29 35 78
5 48 74 18
72 44 28 1
57 60 42 14
59 10 39 46
17 0 45 43
37 47 64 3
9 41 24 30
32 51 73 27
67 33 31 75
38 21 36 79
19 53 58 77
23 63 2 26
52 22 6 70
15 20 25 68
50 11 13 7
55 61 16 34
12 76 62 40
